problems/csplib-prob024/Langford-models/noch/O2/lingeling/model-langford_2_8-solution000001.eprime-solution
language ESSENCE' 1.0

letting seq_Function1D be [5, 8, 4, 1, 7, 1, 5, 4, 6, 3, 8, 2, 7, 3, 2, 6; int(1..16)]
