problems/csplib-prob024/Langford-models/noch/O2/lingeling/model-langford_2_8-solution000001.solution
language Essence 1.3

letting seq be
        function(1 --> 5, 2 --> 8, 3 --> 4, 4 --> 1, 5 --> 7, 6 --> 1, 7 --> 5, 8 --> 4, 9 --> 6, 10 --> 3, 11 --> 8,
                 12 --> 2, 13 --> 7, 14 --> 3, 15 --> 2, 16 --> 6)
